clingo version 5.5.2
Reading from ...nt/beegfs/home/jubruns/encoding/mif.lp ...
Solving...
Answer: 1
move(1,(11,9),(11,10),1)
SATISFIABLE

Models       : 1+
Calls        : 1
Time         : 0.077s (Solving: 0.00s 1st Model: 0.00s Unsat: 0.00s)
CPU Time     : 0.040s

Choices      : 6       
Conflicts    : 0        (Analyzed: 0)
Restarts     : 0       
Model-Level  : 6.0     
Problems     : 1        (Average Length: 0.00 Splits: 0)
Lemmas       : 2        (Deleted: 0)
  Binary     : 2        (Ratio: 100.00%)
  Ternary    : 0        (Ratio:   0.00%)
  Conflict   : 0        (Average Length:    0.0 Ratio:   0.00%) 
  Loop       : 2        (Average Length:    2.0 Ratio: 100.00%) 
  Other      : 0        (Average Length:    0.0 Ratio:   0.00%) 
Backjumps    : 0        (Average:  0.00 Max:   0 Sum:      0)
  Executed   : 0        (Average:  0.00 Max:   0 Sum:      0 Ratio:   0.00%)
  Bounded    : 0        (Average:  0.00 Max:   0 Sum:      0 Ratio: 100.00%)

Rules        : 9605     (Original: 4999)
  Choice     : 8       
  Heuristic  : 0        (Original: 28)
Atoms        : 6476     (Original: 4180 Auxiliary: 2296)
Bodies       : 3932     (Original: 2382)
  Count      : 0        (Original: 16)
Equivalences : 6280     (Atom=Atom: 1565 Body=Body: 26 Other: 4689)
Tight        : No       (SCCs: 2 Non-Hcfs: 0 Nodes: 34 Gammas: 0)
Variables    : 3125     (Eliminated:    0 Frozen:   18)
Constraints  : 5913     (Binary:  86.4% Ternary:  13.4% Other:   0.3%)

